NAME: random-79-3789
TYPE: TSP
COMMENT: size=79 seed=3789
DIMENSION: 160
EDGE_WEIGHT_TYPE: EUC_2D
NODE_COORD_SECTION
+0 723 255
-0 723 255
+1 124 245
-1 50 658
+2 516 374
-2 69 889
+3 432 28
-3 49 338
+4 329 418
-4 316 177
+5 160 847
-5 944 198
+6 558 725
-6 955 723
+7 152 883
-7 30 825
+8 850 850
-8 607 216
+9 572 259
-9 346 321
+10 371 74
-10 591 566
+11 869 880
-11 621 55
+12 715 182
-12 901 647
+13 312 289
-13 485 0
+14 415 197
-14 902 304
+15 389 57
-15 629 360
+16 503 480
-16 677 991
+17 515 624
-17 763 624
+18 312 343
-18 956 173
+19 152 621
-19 730 895
+20 743 841
-20 461 913
+21 930 760
-21 362 800
+22 297 320
-22 31 527
+23 582 130
-23 695 939
+24 957 257
-24 642 885
+25 644 249
-25 283 567
+26 539 60
-26 773 358
+27 791 720
-27 8 14
+28 458 450
-28 566 192
+29 603 329
-29 676 450
+30 572 593
-30 549 169
+31 308 969
-31 366 47
+32 539 677
-32 318 895
+33 555 321
-33 896 326
+34 584 95
-34 491 548
+35 465 519
-35 53 6
+36 949 754
-36 521 151
+37 430 784
-37 482 595
+38 336 559
-38 983 499
+39 461 491
-39 360 240
+40 514 399
-40 132 340
+41 553 14
-41 675 830
+42 44 888
-42 755 181
+43 604 24
-43 873 62
+44 124 834
-44 898 108
+45 137 902
-45 553 361
+46 440 460
-46 966 644
+47 838 513
-47 721 453
+48 637 176
-48 764 429
+49 350 820
-49 123 700
+50 846 735
-50 622 892
+51 413 923
-51 607 34
+52 864 737
-52 622 896
+53 376 735
-53 747 462
+54 161 434
-54 359 541
+55 336 969
-55 570 455
+56 322 127
-56 323 311
+57 552 458
-57 848 156
+58 699 407
-58 913 565
+59 171 52
-59 465 91
+60 540 93
-60 758 2
+61 6 831
-61 469 658
+62 425 414
-62 622 441
+63 802 148
-63 416 307
+64 672 793
-64 240 703
+65 749 542
-65 475 97
+66 563 852
-66 536 717
+67 864 974
-67 384 495
+68 181 44
-68 562 861
+69 151 866
-69 750 707
+70 166 894
-70 384 758
+71 828 674
-71 673 609
+72 23 21
-72 615 522
+73 596 909
-73 88 828
+74 240 670
-74 506 747
+75 31 492
-75 278 974
+76 789 214
-76 510 936
+77 427 254
-77 112 466
+78 67 595
-78 339 913
+79 646 15
-79 556 873
PRECEDENCE_SECTION
+0 -0
+1 -1
+2 -2
+3 -3
+4 -4
+5 -5
+6 -6
+7 -7
+8 -8
+9 -9
+10 -10
+11 -11
+12 -12
+13 -13
+14 -14
+15 -15
+16 -16
+17 -17
+18 -18
+19 -19
+20 -20
+21 -21
+22 -22
+23 -23
+24 -24
+25 -25
+26 -26
+27 -27
+28 -28
+29 -29
+30 -30
+31 -31
+32 -32
+33 -33
+34 -34
+35 -35
+36 -36
+37 -37
+38 -38
+39 -39
+40 -40
+41 -41
+42 -42
+43 -43
+44 -44
+45 -45
+46 -46
+47 -47
+48 -48
+49 -49
+50 -50
+51 -51
+52 -52
+53 -53
+54 -54
+55 -55
+56 -56
+57 -57
+58 -58
+59 -59
+60 -60
+61 -61
+62 -62
+63 -63
+64 -64
+65 -65
+66 -66
+67 -67
+68 -68
+69 -69
+70 -70
+71 -71
+72 -72
+73 -73
+74 -74
+75 -75
+76 -76
+77 -77
+78 -78
+79 -79
EOF
